sat
(model 
  (define-fun inv ((x!0 Int)) Bool
    (let ((a!1 (ite (<= 0 x!0)
                    (ite (<= 1 x!0) (ite (<= 200 x!0) 200 1) 0)
                    (- 1))))
      (or (= a!1 200) (= a!1 1) (= a!1 0))))
)
